(set-info :source |printed by MathSAT|)
(declare-fun |.x{142}| () Int)
(declare-fun |.y{13}| () Int)
(declare-fun |.y{9}| () (Array Int Int))
(declare-fun |.y{14}| () (Array Int Int))
(declare-fun |.y{10}| () (Array Int Int))
(declare-fun |.y{15}| () (Array Int Int))
(declare-fun |.x{140}| () Int)
(declare-fun |.y{16}| () Int)
(declare-fun |.y{11}| () Int)
(declare-fun |.y{17}| () Int)
(declare-fun |.y{12}| () Int)
(declare-fun |.y{18}| () Int)
(declare-fun |.x{139}| () (Array Int Int))
(declare-fun |.y{19}| () (Array Int Int))
(declare-fun |.x{141}| () (Array Int Int))
(declare-fun |.y{20}| () (Array Int Int))
(declare-fun |.loc{3}| () Bool)
(declare-fun |.loc{5}| () Bool)
(declare-fun |.loc{4}| () Bool)
(declare-fun |.loc{6}| () Bool)
(define-fun .def_2 () Bool (! false :init true))
(define-fun .def_26 () Bool (! |.loc{4}| :next |.loc{6}|))
(define-fun .def_109 () Bool (not .def_26))
(define-fun .def_8 () Int (! |.x{142}| :next |.y{13}|))
(define-fun .def_22 () (Array Int Int) (! |.x{141}| :next |.y{20}|))
(define-fun .def_78 () Int (select .def_22 .def_8))
(define-fun .def_14 () Int (! |.x{140}| :next |.y{16}|))
(define-fun .def_20 () (Array Int Int) (! |.x{139}| :next |.y{19}|))
(define-fun .def_77 () Int (select .def_20 .def_14))
(define-fun .def_79 () Bool (= .def_77 .def_78))
(define-fun .def_102 () Bool (not .def_79))
(define-fun .def_29 () Bool (not |.loc{5}|))
(define-fun .def_101 () Bool (and |.loc{6}| .def_29))
(define-fun .def_103 () Bool (and .def_101 .def_102))
(define-fun .def_24 () Bool (! |.loc{3}| :next |.loc{5}|))
(define-fun .def_104 () Bool (and .def_24 .def_103))
(define-fun .def_87 () Bool (= .def_78 0))
(define-fun .def_88 () Bool (not .def_87))
(define-fun .def_105 () Bool (and .def_88 .def_104))
(define-fun .def_12 () (Array Int Int) (! |.y{10}| :next |.y{15}|))
(define-fun .def_99 () Bool (= .def_12 |.y{20}|))
(define-fun .def_10 () (Array Int Int) (! |.y{9}| :next |.y{14}|))
(define-fun .def_97 () Bool (= .def_10 |.y{19}|))
(define-fun .def_94 () Bool (= .def_8 |.y{16}|))
(define-fun .def_18 () Int (! |.y{12}| :next |.y{18}|))
(define-fun .def_92 () Bool (= |.y{13}| .def_18))
(define-fun .def_28 () Bool (not |.loc{6}|))
(define-fun .def_90 () Bool (and |.loc{5}| .def_28))
(define-fun .def_31 () Bool (not .def_24))
(define-fun .def_91 () Bool (and .def_31 .def_90))
(define-fun .def_93 () Bool (and .def_91 .def_92))
(define-fun .def_95 () Bool (and .def_93 .def_94))
(define-fun .def_48 () Int (select .def_10 .def_14))
(define-fun .def_52 () Bool (= .def_48 0))
(define-fun .def_96 () Bool (and .def_52 .def_95))
(define-fun .def_98 () Bool (and .def_96 .def_97))
(define-fun .def_100 () Bool (and .def_98 .def_99))
(define-fun .def_106 () Bool (or .def_100 .def_105))
(define-fun .def_85 () Bool (= .def_22 |.y{20}|))
(define-fun .def_82 () Bool (= .def_20 |.y{19}|))
(define-fun .def_72 () Bool (<= |.y{13}| 0))
(define-fun .def_73 () Bool (not .def_72))
(define-fun .def_71 () Bool (<= .def_8 0))
(define-fun .def_74 () Bool (or .def_71 .def_73))
(define-fun .def_66 () Int (* (- 1) |.y{13}|))
(define-fun .def_67 () Int (+ .def_8 .def_66))
(define-fun .def_68 () Bool (= .def_67 (- 1)))
(define-fun .def_69 () Bool (and |.loc{5}| .def_68))
(define-fun .def_70 () Bool (and .def_28 .def_69))
(define-fun .def_75 () Bool (and .def_70 .def_74))
(define-fun .def_40 () Int (* (- 1) |.y{16}|))
(define-fun .def_41 () Int (+ .def_14 .def_40))
(define-fun .def_42 () Bool (= .def_41 (- 1)))
(define-fun .def_76 () Bool (and .def_42 .def_75))
(define-fun .def_80 () Bool (and .def_76 .def_79))
(define-fun .def_56 () Bool (<= |.y{16}| 0))
(define-fun .def_57 () Bool (not .def_56))
(define-fun .def_55 () Bool (<= .def_14 0))
(define-fun .def_58 () Bool (or .def_55 .def_57))
(define-fun .def_81 () Bool (and .def_58 .def_80))
(define-fun .def_83 () Bool (and .def_81 .def_82))
(define-fun .def_84 () Bool (and .def_24 .def_83))
(define-fun .def_86 () Bool (and .def_84 .def_85))
(define-fun .def_89 () Bool (and .def_86 .def_88))
(define-fun .def_107 () Bool (or .def_89 .def_106))
(define-fun .def_64 () Bool (= .def_18 |.y{18}|))
(define-fun .def_62 () Bool (= .def_10 |.y{14}|))
(define-fun .def_60 () Bool (= .def_8 |.y{13}|))
(define-fun .def_53 () Bool (not .def_52))
(define-fun .def_16 () Int (! |.y{11}| :next |.y{17}|))
(define-fun .def_49 () (Array Int Int) (store .def_12 .def_16 .def_48))
(define-fun .def_50 () Bool (= |.y{15}| .def_49))
(define-fun .def_44 () Int (* (- 1) |.y{17}|))
(define-fun .def_45 () Int (+ .def_16 .def_44))
(define-fun .def_46 () Bool (= .def_45 (- 1)))
(define-fun .def_35 () Bool (<= |.y{17}| 0))
(define-fun .def_36 () Bool (not .def_35))
(define-fun .def_34 () Bool (<= .def_16 0))
(define-fun .def_37 () Bool (or .def_34 .def_36))
(define-fun .def_30 () Bool (and .def_28 .def_29))
(define-fun .def_32 () Bool (and .def_30 .def_31))
(define-fun .def_38 () Bool (and .def_32 .def_37))
(define-fun .def_43 () Bool (and .def_38 .def_42))
(define-fun .def_47 () Bool (and .def_43 .def_46))
(define-fun .def_51 () Bool (and .def_47 .def_50))
(define-fun .def_54 () Bool (and .def_51 .def_53))
(define-fun .def_59 () Bool (and .def_54 .def_58))
(define-fun .def_61 () Bool (and .def_59 .def_60))
(define-fun .def_63 () Bool (and .def_61 .def_62))
(define-fun .def_65 () Bool (and .def_63 .def_64))
(define-fun .def_108 () Bool (or .def_65 .def_107))
(define-fun .def_110 () Bool (! (and .def_108 .def_109) :trans true))
(define-fun .def_111 () Bool (and .def_26 .def_31))
(define-fun .def_112 () Bool (! (not .def_111) :invar-property 0))
(assert true)
